95
raw_data/rcpsp/DC2-npv75.xlsx rcpspdc455
Time limit set to 60 seconds
Running CP solver
/home/omastto1/General-Optimization-Solver/src/solvers/rcpsp.py:31(stream:95:6): Warning: Cumulative expression 'pulse': height is zero, expression is zero everywhere.
                                                                                            VarCumulAtom_238 = pulse("0", 0)
/home/omastto1/General-Optimization-Solver/src/solvers/rcpsp.py:31(stream:95:1212): Warning: Cumulative expression 'pulse': height is zero, expression is zero everywhere.
                                                                                               VarCumulAtom_314 = pulse("76", 0)
/home/omastto1/General-Optimization-Solver/src/solvers/rcpsp.py:31(stream:96:6): Warning: Cumulative expression 'pulse': height is zero, expression is zero everywhere.
                                                                                            VarCumulAtom_318 = pulse("0", 0)
/home/omastto1/General-Optimization-Solver/src/solvers/rcpsp.py:31(stream:96:1212): Warning: Cumulative expression 'pulse': height is zero, expression is zero everywhere.
                                                                                               VarCumulAtom_394 = pulse("76", 0)
/home/omastto1/General-Optimization-Solver/src/solvers/rcpsp.py:31(stream:97:6): Warning: Cumulative expression 'pulse': height is zero, expression is zero everywhere.
                                                                                            VarCumulAtom_398 = pulse("0", 0)
/home/omastto1/General-Optimization-Solver/src/solvers/rcpsp.py:31(stream:97:1212): Warning: Cumulative expression 'pulse': height is zero, expression is zero everywhere.
                                                                                               VarCumulAtom_474 = pulse("76", 0)
/home/omastto1/General-Optimization-Solver/src/solvers/rcpsp.py:31(stream:98:6): Warning: Cumulative expression 'pulse': height is zero, expression is zero everywhere.
                                                                                            VarCumulAtom_478 = pulse("0", 0)
/home/omastto1/General-Optimization-Solver/src/solvers/rcpsp.py:31(stream:98:1212): Warning: Cumulative expression 'pulse': height is zero, expression is zero everywhere.
                                                                                               VarCumulAtom_554 = pulse("76", 0)
 ! --------------------------------------------------- CP Optimizer 20.1.0.0 --
 ! Minimization problem - 78 variables, 447 constraints
 ! TimeLimit            = 60
 ! Workers              = 14
 ! LogVerbosity         = Terse
 ! Initial process time : 0.01s (0.01s extraction + 0.00s propagation)
 !  . Log search space  : 502.5 (before), 502.5 (after)
 !  . Memory usage      : 866.3 kB (before), 866.3 kB (after)
 ! Using parallel search with 14 workers.
 ! ----------------------------------------------------------------------------
 !          Best Branches  Non-fixed    W       Branch decision
                        0         78                 -
 + New bound is 49
 ! Using iterative diving.
 ! Using temporal relaxation.
 *           144      157  1.09s        1      (gap is 65.97%)
 *           141      454  1.09s        1      (gap is 65.25%)
 *           140     1308  1.09s        1      (gap is 65.00%)
 *           136     1386  1.09s        1      (gap is 63.97%)
 *           135     1655  1.09s        1      (gap is 63.70%)
 *           132     2127  1.09s        1      (gap is 62.88%)
 *           129     2614  1.09s        4      (gap is 62.02%)
             129     4872          6   11   F        -
 + New bound is 111 (gap is 13.95%)
 ! Using failure-directed search.
 *           128    14435  3.33s        4      (gap is 13.28%)
 *           127    15322  3.33s        4      (gap is 12.60%)
 *           126    24910  6.62s        4      (gap is 11.90%)
 *           124    90918  23.10s      10      (gap is 10.48%)
 *           123     143k  41.17s       4      (gap is 9.76%)
 ! ----------------------------------------------------------------------------
 ! Search terminated by limit, 12 solutions found.
 ! Best objective         : 123 (gap is 9.76%)
 ! Best bound             : 111
 ! ----------------------------------------------------------------------------
 ! Number of branches     : 4424073
 ! Number of fails        : 924651
 ! Total memory usage     : 13.1 MB (13.0 MB CP Optimizer + 0.1 MB Concert)
 ! Time spent in solve    : 60.07s (60.06s engine + 0.01s extraction)
 ! Search speed (br. / s) : 73673.2
 ! ----------------------------------------------------------------------------
(111,)
(0.097561,)
(123,)
Objective value: 123
Solution is 8.8 % worse than the lower bound.
Feasible solution found
